875691
81,15,14,82,87,49,34,96,41,90,71,67,62,12,31,69,0,47,36,73,79,98,35,37,75,86,44,85,80,13,38,91,83,21,51,64,53,97,22,10,27,45,70,33,89,58,23,42,18,11,16,25,93,39,28,78,50,77,24,72,6,3,65,94,46,56,32,8,19,20,76,95,29,59,30,61,9,17,40,5,74,68,55,48,92,54,43,52,7,88,84,4,63,2,1,26,66,60,57
